&bands 
outdir ='./tmp' 
prefix='Nacl' 
filband='Nacl.band' 
lsym= .true. 
/ 